
Gurobi 11.0.3 (linux64) logging started Mon 18 Nov 2024 10:30:35 PM CST

Set parameter LogFile to value "/home/dlcole3/graph_abstraction/hierarchical_graphs/git_storage/CS1/HP_low_reserves/gurobi_logs/serial/logfile_ST17_5.log"

Gurobi 11.0.3 (linux64) logging started Mon 18 Nov 2024 10:34:13 PM CST

Set parameter LogFile to value "/home/dlcole3/graph_abstraction/hierarchical_graphs/git_storage/CS1/HP_low_reserves/gurobi_logs/serial/logfile_ST17_5.log"
Gurobi Optimizer version 11.0.3 build v11.0.3rc0 (linux64 - "Ubuntu 18.04.3 LTS")

CPU model: Intel(R) Xeon(R) CPU E5-2698 v4 @ 2.20GHz, instruction set [SSE2|AVX|AVX2]
Thread count: 40 physical cores, 80 logical processors, using up to 20 threads

Optimize a model with 29168 rows, 50688 columns and 136175 nonzeros
Model fingerprint: 0x0d65d512
Variable types: 46944 continuous, 3744 integer (3744 binary)
Coefficient statistics:
  Matrix range     [6e-01, 2e+04]
  Objective range  [2e+00, 2e+04]
  Bounds range     [5e-02, 2e+05]
  RHS range        [5e-02, 7e+03]
Presolve removed 14361 rows and 38892 columns
Presolve time: 0.36s
Presolved: 14807 rows, 11796 columns, 63160 nonzeros
Variable types: 8779 continuous, 3017 integer (3017 binary)
Found heuristic solution: objective 174624.14069
Found heuristic solution: objective 166554.31134
Found heuristic solution: objective 137236.72589

Root relaxation: objective 3.059888e+04, 6769 iterations, 0.25 seconds (0.18 work units)

    Nodes    |    Current Node    |     Objective Bounds      |     Work
 Expl Unexpl |  Obj  Depth IntInf | Incumbent    BestBd   Gap | It/Node Time

     0     0 30598.8831    0    5 137236.726 30598.8831  77.7%     -    1s
H    0     0                    137236.72567 30598.8831  77.7%     -    1s
H    0     0                    75659.290703 30598.8831  59.6%     -    1s
H    0     0                    68709.017254 30598.8831  55.5%     -    1s
H    0     0                    68709.017009 30598.8831  55.5%     -    1s
     0     0 30598.8831    0    5 68709.0170 30598.8831  55.5%     -    1s
     0     2 30598.8831    0    5 68709.0170 30598.8831  55.5%     -    1s
*   25    30               4    32339.713095 30598.9381  5.38%  25.9    2s
H   31    44                    32339.713055 30598.9381  5.38%  21.7    2s
H   33    44                    32024.967162 30598.9381  4.45%  21.0    2s
H   44    44                    31134.740301 30611.6726  1.68%  18.8    2s
H  119    87                    31060.989443 30692.6432  1.19%  10.1    2s
H  192   107                    31059.765094 30692.6432  1.18%   7.2    2s
H  228   143                    31033.708028 30692.6432  1.10%   6.7    2s
*  345   117              17    31033.630738 30692.6982  1.10%   4.9    2s
H  507   124                    31033.575801 30692.6982  1.10%   4.3    2s
H  518   124                    31028.455472 30692.6982  1.08%   4.3    2s
*  521   124              18    31028.378182 30692.6982  1.08%   4.3    2s

Explored 635 nodes (9146 simplex iterations) in 2.73 seconds (1.73 work units)
Thread count was 20 (of 80 available processors)

Solution count 10: 31028.4 31028.4 31033.6 ... 68709

Optimal solution found (tolerance 3.00e-03)
Best objective 3.102837818325e+04, best bound 3.101735866138e+04, gap 0.0355%

User-callback calls 2751, time in user-callback 0.00 sec
